NAME: instance_2865
TYPE: TSP
DIMENSION: 20
EDGE_WEIGHT_TYPE: EUC_2D
NODE_COORD_SECTION
0 88.82 75.06
1 78.43 83.46
2 79.36 46.47
3 54.43 74.04
4 43.24 5.69
5 52.06 48.77
6 7.50 80.58
7 30.97 85.54
8 37.60 71.65
9 94.93 60.54
10 9.94 42.90
11 15.35 14.85
12 87.45 58.56
13 40.66 96.71
14 56.99 5.33
15 88.30 43.63
16 66.28 42.21
17 38.89 15.26
18 57.86 53.24
19 59.90 79.83
EOF
